39485 39992 
35891 41183 
36160 41145 
35106 41237 
35375 41199 
38660 40563 
38055 40715 
38416 40601 
36849 41116 
37873 40753 
37825 40769 
38213 40608 
37522 40949 
36064 41170 
38157 40639 
37287 40961 
